c SAT Generator for power-law distributed variable frequencies
c -g u -v 20 -c 91 -k 3 -p 2.750000 -b 3.200000 -f /home/schmidt/Devel/ni-kop-sat/data/ensemble/ruf20-91/ruf20-91-437 -u 1 -U 1 -s 2785086399
p cnf 20 91
-18 -19 20 0
1 17 -20 0
-2 12 14 0
6 -7 -8 0
-2 9 15 0
10 11 -19 0
-1 2 -11 0
-9 10 11 0
5 10 -14 0
-3 4 -15 0
-5 -12 18 0
-6 12 15 0
-10 -15 19 0
-1 2 14 0
-11 13 -17 0
1 -5 13 0
-1 9 -11 0
-5 -12 -14 0
-5 -9 -12 0
5 -7 16 0
-11 -17 18 0
-4 6 -15 0
5 -9 20 0
1 8 -14 0
-1 17 19 0
7 12 -18 0
-7 8 -12 0
3 -13 -17 0
-3 -11 14 0
5 12 -15 0
-2 -4 -13 0
2 9 11 0
4 -5 -11 0
-1 -5 7 0
12 -15 -16 0
1 7 15 0
3 11 -18 0
-5 7 13 0
6 -12 -18 0
12 -14 17 0
-3 -9 -15 0
-9 12 19 0
-9 -11 15 0
9 -13 18 0
2 4 7 0
5 -7 18 0
2 -5 -12 0
-1 -6 8 0
5 9 17 0
4 16 20 0
-2 -3 -9 0
1 16 20 0
-4 -13 20 0
-2 13 17 0
3 4 12 0
-5 6 20 0
-7 14 19 0
9 -13 20 0
-15 -16 20 0
5 -7 -14 0
1 6 12 0
-3 4 -6 0
3 -10 -12 0
1 -6 -11 0
-1 -6 -14 0
-7 -8 -14 0
-3 -8 12 0
5 9 19 0
-1 2 -15 0
2 -11 20 0
-6 -10 -15 0
-1 4 7 0
9 18 -20 0
-14 -15 18 0
-10 12 19 0
13 -14 -15 0
7 -17 19 0
4 13 15 0
6 11 17 0
2 -4 -5 0
10 17 20 0
-2 -4 -20 0
5 -6 -13 0
4 -8 11 0
-3 15 17 0
-2 6 -14 0
5 9 -15 0
-1 7 8 0
-4 14 -20 0
-6 -11 -20 0
-8 -18 -20 0
